Weights = (
	unscheduledOptional: 300,
	continuityOfCare: 1,
	nurseEccessiveWorkload: 5,
	surgeonTransfer: 1,
	openOperatingTheater: 20,
	roomMixedAge: 5,
	patientDelay: 15,
	roomNurseSkill: 1,
);

Genders = {A, B};
ShiftTypes = {early, late, night};
AgeGroups = {infant, adult, elderly};
NurseIds = {n00, n01, n02, n03, n04, n05, n06, n07, n08, n09, n10, n11, n12, n13, n14, n15, n16, n17, n18, n19, n20};
SurgeonIds = {s0, s1};
OperatingTheaterIds = {t0, t1};
RoomIds = {r0, r1, r2, r3, r4, r5, r6, r7, r8};
PatientIds = {p00, p01, p02, p03, p04, p05, p06, p07, p08, p09, p10, p11, p12, p13, p14, p15, p16, p17, p18, p19, p20, p21, p22, p23, p24, p25, p26, p27, p28, p29, p30, p31, p32, p33, p34, p35, p36, p37, p38, p39, p40, p41, p42, p43, p44, p45, p46, p47, p48, p49, p50, p51, p52, p53};
OccupantIds = {a0, a1, a2, a3, a4, a5, a6, a7, a8};

lastDay = 13;
maxDay = 24;
maxSkillLevel = 2;

nurseData = [
	(
		id: n00,
		skillLevel: 2,
		maxWorkloadPerShift: array2d(Days, ShiftTypes, [
			0, 5, 0, 
			0, 0, 15, 
			0, 0, 15, 
			0, 0, 15, 
			0, 0, 15, 
			0, 0, 15, 
			0, 0, 0, 
			0, 15, 0, 
			0, 0, 15, 
			0, 0, 5, 
			0, 0, 0, 
			15, 0, 0, 
			15, 0, 0, 
			0, 0, 15
		]),
	),
	(
		id: n01,
		skillLevel: 0,
		maxWorkloadPerShift: array2d(Days, ShiftTypes, [
			0, 0, 10, 
			0, 0, 0, 
			10, 0, 0, 
			0, 10, 0, 
			0, 0, 10, 
			0, 0, 10, 
			0, 0, 10, 
			0, 0, 10, 
			0, 0, 10, 
			0, 0, 0, 
			0, 10, 0, 
			0, 10, 0, 
			0, 0, 0, 
			10, 0, 0
		]),
	),
	(
		id: n02,
		skillLevel: 2,
		maxWorkloadPerShift: array2d(Days, ShiftTypes, [
			0, 0, 5, 
			0, 0, 0, 
			15, 0, 0, 
			15, 0, 0, 
			15, 0, 0, 
			5, 0, 0, 
			15, 0, 0, 
			0, 0, 5, 
			0, 0, 15, 
			0, 0, 5, 
			0, 0, 15, 
			0, 0, 15, 
			0, 0, 0, 
			0, 15, 0
		]),
	),
	(
		id: n03,
		skillLevel: 0,
		maxWorkloadPerShift: array2d(Days, ShiftTypes, [
			0, 10, 0, 
			0, 0, 10, 
			0, 0, 10, 
			0, 0, 10, 
			0, 0, 10, 
			0, 0, 0, 
			10, 0, 0, 
			10, 0, 0, 
			10, 0, 0, 
			10, 0, 0, 
			10, 0, 0, 
			0, 10, 0, 
			0, 0, 10, 
			0, 0, 10
		]),
	),
	(
		id: n04,
		skillLevel: 1,
		maxWorkloadPerShift: array2d(Days, ShiftTypes, [
			0, 12, 0, 
			0, 0, 0, 
			12, 0, 0, 
			12, 0, 0, 
			0, 12, 0, 
			0, 0, 12, 
			0, 0, 12, 
			0, 0, 12, 
			0, 0, 0, 
			12, 0, 0, 
			12, 0, 0, 
			12, 0, 0, 
			12, 0, 0, 
			12, 0, 0
		]),
	),
	(
		id: n05,
		skillLevel: 0,
		maxWorkloadPerShift: array2d(Days, ShiftTypes, [
			0, 0, 10, 
			0, 0, 10, 
			0, 0, 10, 
			0, 0, 10, 
			0, 0, 0, 
			0, 10, 0, 
			0, 10, 0, 
			0, 10, 0, 
			0, 10, 0, 
			0, 0, 0, 
			0, 10, 0, 
			0, 10, 0, 
			0, 10, 0, 
			0, 10, 0
		]),
	),
	(
		id: n06,
		skillLevel: 0,
		maxWorkloadPerShift: array2d(Days, ShiftTypes, [
			0, 0, 10, 
			0, 0, 0, 
			0, 10, 0, 
			0, 10, 0, 
			0, 0, 10, 
			0, 0, 0, 
			10, 0, 0, 
			0, 10, 0, 
			0, 10, 0, 
			0, 0, 0, 
			10, 0, 0, 
			10, 0, 0, 
			0, 0, 10, 
			0, 0, 0
		]),
	),
	(
		id: n07,
		skillLevel: 0,
		maxWorkloadPerShift: array2d(Days, ShiftTypes, [
			0, 0, 10, 
			0, 0, 10, 
			0, 0, 0, 
			0, 10, 0, 
			0, 10, 0, 
			0, 10, 0, 
			0, 0, 10, 
			0, 0, 10, 
			0, 0, 10, 
			0, 0, 0, 
			10, 0, 0, 
			10, 0, 0, 
			10, 0, 0, 
			10, 0, 0
		]),
	),
	(
		id: n08,
		skillLevel: 0,
		maxWorkloadPerShift: array2d(Days, ShiftTypes, [
			0, 10, 0, 
			0, 0, 0, 
			10, 0, 0, 
			0, 0, 10, 
			0, 0, 0, 
			10, 0, 0, 
			10, 0, 0, 
			0, 0, 10, 
			0, 0, 0, 
			10, 0, 0, 
			10, 0, 0, 
			0, 10, 0, 
			0, 10, 0, 
			0, 0, 10
		]),
	),
	(
		id: n09,
		skillLevel: 2,
		maxWorkloadPerShift: array2d(Days, ShiftTypes, [
			0, 0, 0, 
			15, 0, 0, 
			15, 0, 0, 
			0, 15, 0, 
			0, 0, 0, 
			15, 0, 0, 
			15, 0, 0, 
			0, 15, 0, 
			0, 15, 0, 
			0, 0, 15, 
			0, 0, 15, 
			0, 0, 5, 
			0, 0, 15, 
			0, 0, 0
		]),
	),
	(
		id: n10,
		skillLevel: 2,
		maxWorkloadPerShift: array2d(Days, ShiftTypes, [
			0, 5, 0, 
			0, 15, 0, 
			0, 0, 0, 
			15, 0, 0, 
			5, 0, 0, 
			5, 0, 0, 
			0, 0, 5, 
			0, 0, 0, 
			15, 0, 0, 
			5, 0, 0, 
			0, 15, 0, 
			0, 15, 0, 
			0, 15, 0, 
			0, 0, 15
		]),
	),
	(
		id: n11,
		skillLevel: 0,
		maxWorkloadPerShift: array2d(Days, ShiftTypes, [
			0, 10, 0, 
			0, 0, 0, 
			0, 10, 0, 
			0, 0, 0, 
			10, 0, 0, 
			0, 10, 0, 
			0, 0, 0, 
			0, 10, 0, 
			0, 10, 0, 
			0, 10, 0, 
			0, 10, 0, 
			0, 0, 10, 
			0, 0, 0, 
			10, 0, 0
		]),
	),
	(
		id: n12,
		skillLevel: 1,
		maxWorkloadPerShift: array2d(Days, ShiftTypes, [
			0, 12, 0, 
			0, 12, 0, 
			0, 12, 0, 
			0, 0, 0, 
			12, 0, 0, 
			0, 12, 0, 
			0, 0, 0, 
			12, 0, 0, 
			12, 0, 0, 
			12, 0, 0, 
			12, 0, 0, 
			12, 0, 0, 
			12, 0, 0, 
			12, 0, 0
		]),
	),
	(
		id: n13,
		skillLevel: 0,
		maxWorkloadPerShift: array2d(Days, ShiftTypes, [
			10, 0, 0, 
			0, 10, 0, 
			0, 10, 0, 
			0, 10, 0, 
			0, 10, 0, 
			0, 10, 0, 
			0, 10, 0, 
			0, 0, 0, 
			10, 0, 0, 
			0, 10, 0, 
			0, 0, 10, 
			0, 0, 10, 
			0, 0, 10, 
			0, 0, 0
		]),
	),
	(
		id: n14,
		skillLevel: 1,
		maxWorkloadPerShift: array2d(Days, ShiftTypes, [
			12, 0, 0, 
			0, 12, 0, 
			0, 0, 0, 
			0, 0, 0, 
			12, 0, 0, 
			12, 0, 0, 
			0, 12, 0, 
			0, 0, 0, 
			12, 0, 0, 
			12, 0, 0, 
			0, 12, 0, 
			0, 0, 12, 
			0, 0, 0, 
			0, 12, 0
		]),
	),
	(
		id: n15,
		skillLevel: 1,
		maxWorkloadPerShift: array2d(Days, ShiftTypes, [
			0, 0, 0, 
			12, 0, 0, 
			0, 12, 0, 
			0, 0, 0, 
			0, 12, 0, 
			0, 0, 0, 
			0, 12, 0, 
			0, 0, 0, 
			0, 12, 0, 
			0, 12, 0, 
			0, 0, 12, 
			0, 0, 0, 
			12, 0, 0, 
			0, 12, 0
		]),
	),
	(
		id: n16,
		skillLevel: 0,
		maxWorkloadPerShift: array2d(Days, ShiftTypes, [
			10, 0, 0, 
			10, 0, 0, 
			0, 0, 0, 
			10, 0, 0, 
			0, 10, 0, 
			0, 10, 0, 
			0, 10, 0, 
			0, 0, 0, 
			0, 0, 0, 
			0, 10, 0, 
			0, 0, 0, 
			0, 0, 0, 
			0, 10, 0, 
			0, 10, 0
		]),
	),
	(
		id: n17,
		skillLevel: 2,
		maxWorkloadPerShift: array2d(Days, ShiftTypes, [
			15, 0, 0, 
			5, 0, 0, 
			0, 0, 5, 
			0, 0, 0, 
			0, 0, 0, 
			5, 0, 0, 
			0, 0, 15, 
			0, 0, 0, 
			0, 0, 0, 
			0, 5, 0, 
			0, 0, 0, 
			0, 0, 0, 
			0, 15, 0, 
			0, 0, 0
		]),
	),
	(
		id: n18,
		skillLevel: 2,
		maxWorkloadPerShift: array2d(Days, ShiftTypes, [
			15, 0, 0, 
			0, 15, 0, 
			0, 0, 15, 
			0, 0, 0, 
			0, 0, 0, 
			15, 0, 0, 
			0, 0, 0, 
			15, 0, 0, 
			0, 0, 0, 
			0, 15, 0, 
			0, 0, 0, 
			0, 0, 0, 
			0, 0, 0, 
			0, 0, 0
		]),
	),
	(
		id: n19,
		skillLevel: 1,
		maxWorkloadPerShift: array2d(Days, ShiftTypes, [
			0, 0, 0, 
			12, 0, 0, 
			0, 0, 0, 
			12, 0, 0, 
			0, 0, 0, 
			0, 0, 12, 
			0, 0, 0, 
			12, 0, 0, 
			0, 0, 0, 
			0, 0, 12, 
			0, 0, 0, 
			0, 0, 0, 
			0, 0, 0, 
			0, 0, 0
		]),
	),
	(
		id: n20,
		skillLevel: 0,
		maxWorkloadPerShift: array2d(Days, ShiftTypes, [
			0, 0, 0, 
			0, 0, 0, 
			0, 0, 0, 
			0, 0, 0, 
			0, 0, 0, 
			0, 0, 0, 
			0, 0, 0, 
			10, 0, 0, 
			0, 0, 0, 
			0, 0, 10, 
			0, 0, 0, 
			0, 0, 0, 
			0, 0, 0, 
			0, 0, 0
		]),
	)
];

surgeonData = [
	(id: s0, maxSurgeryTime: [0:0, 600, 0, 600, 600, 0, 0, 480, 0, 0, 360, 480, 360, 480]),
	(id: s1, maxSurgeryTime: [0:480, 360, 600, 480, 480, 0, 480, 480, 480, 480, 0, 480, 480, 480])
];

patientData = [
	(
		id: p00, 
		gender: B, 
		ageGroup: adult, 
		lengthOfStay: 6, 
		workloadProduced: [0:3, 3, 2, 2, 3, 1, 2, 2, 1, 2, 3, 2, 2, 3, 2, 1, 1, 2],
		skillLevelRequired: [0:0, 2, 1, 2, 0, 1, 1, 2, 0, 2, 2, 0, 2, 1, 0, 2, 1, 0],
		mandatory: true, 
		earliestPossibleAdmission: 2, 
		latestPossibleAdmission: 12, 
		surgeryDuration: 120, 
		assignedSurgeon: s1, 
		incompatibleRooms: [r7, r8],
	),
	(
		id: p01, 
		gender: A, 
		ageGroup: adult, 
		lengthOfStay: 3, 
		workloadProduced: [0:2, 2, 2, 3, 2, 1, 2, 2, 2],
		skillLevelRequired: [0:1, 2, 0, 0, 2, 0, 0, 2, 1],
		mandatory: true, 
		earliestPossibleAdmission: 3, 
		latestPossibleAdmission: 12, 
		surgeryDuration: 120, 
		assignedSurgeon: s1, 
		incompatibleRooms: [r0],
	),
	(
		id: p02, 
		gender: A, 
		ageGroup: elderly, 
		lengthOfStay: 6, 
		workloadProduced: [0:2, 2, 1, 3, 2, 1, 2, 2, 2, 3, 3, 1, 2, 1, 1, 3, 2, 1],
		skillLevelRequired: [0:0, 0, 0, 1, 2, 1, 2, 0, 1, 2, 0, 1, 2, 0, 1, 0, 0, 1],
		mandatory: false, 
		earliestPossibleAdmission: 4, 
		latestPossibleAdmission: 13, 
		surgeryDuration: 180, 
		assignedSurgeon: s0, 
		incompatibleRooms: [r2, r5],
	),
	(
		id: p03, 
		gender: A, 
		ageGroup: elderly, 
		lengthOfStay: 4, 
		workloadProduced: [0:2, 2, 1, 2, 2, 1, 2, 2, 1, 2, 2, 2],
		skillLevelRequired: [0:1, 2, 0, 2, 0, 0, 0, 0, 0, 2, 0, 1],
		mandatory: true, 
		earliestPossibleAdmission: 1, 
		latestPossibleAdmission: 12, 
		surgeryDuration: 120, 
		assignedSurgeon: s1, 
		incompatibleRooms: [r3],
	),
	(
		id: p04, 
		gender: B, 
		ageGroup: elderly, 
		lengthOfStay: 3, 
		workloadProduced: [0:2, 2, 1, 2, 3, 2, 1, 3, 2],
		skillLevelRequired: [0:1, 2, 1, 1, 2, 0, 1, 1, 0],
		mandatory: true, 
		earliestPossibleAdmission: 1, 
		latestPossibleAdmission: 1, 
		surgeryDuration: 120, 
		assignedSurgeon: s1, 
		incompatibleRooms: [],
	),
	(
		id: p05, 
		gender: B, 
		ageGroup: elderly, 
		lengthOfStay: 11, 
		workloadProduced: [0:2, 3, 2, 2, 3, 2, 3, 3, 2, 3, 3, 1, 3, 2, 1, 3, 2, 2, 3, 2, 1, 2, 2, 2, 2, 2, 2, 2, 2, 1, 3, 3, 1],
		skillLevelRequired: [0:1, 0, 0, 1, 2, 0, 2, 1, 0, 0, 1, 1, 2, 2, 0, 0, 1, 1, 0, 1, 1, 2, 0, 1, 0, 1, 1, 1, 2, 0, 0, 0, 1],
		mandatory: false, 
		earliestPossibleAdmission: 0, 
		latestPossibleAdmission: 13, 
		surgeryDuration: 90, 
		assignedSurgeon: s1, 
		incompatibleRooms: [],
	),
	(
		id: p06, 
		gender: B, 
		ageGroup: elderly, 
		lengthOfStay: 3, 
		workloadProduced: [0:2, 3, 1, 2, 1, 2, 2, 1, 2],
		skillLevelRequired: [0:1, 0, 1, 1, 1, 0, 1, 0, 0],
		mandatory: true, 
		earliestPossibleAdmission: 0, 
		latestPossibleAdmission: 12, 
		surgeryDuration: 90, 
		assignedSurgeon: s1, 
		incompatibleRooms: [r0],
	),
	(
		id: p07, 
		gender: A, 
		ageGroup: elderly, 
		lengthOfStay: 4, 
		workloadProduced: [0:3, 2, 2, 3, 2, 1, 3, 1, 2, 1, 3, 1],
		skillLevelRequired: [0:2, 2, 0, 1, 2, 0, 0, 0, 0, 2, 2, 0],
		mandatory: true, 
		earliestPossibleAdmission: 0, 
		latestPossibleAdmission: 12, 
		surgeryDuration: 240, 
		assignedSurgeon: s1, 
		incompatibleRooms: [r1, r3],
	),
	(
		id: p08, 
		gender: B, 
		ageGroup: elderly, 
		lengthOfStay: 3, 
		workloadProduced: [0:2, 2, 1, 2, 3, 1, 2, 1, 1],
		skillLevelRequired: [0:0, 0, 0, 2, 1, 0, 2, 1, 0],
		mandatory: false, 
		earliestPossibleAdmission: 1, 
		latestPossibleAdmission: 13, 
		surgeryDuration: 120, 
		assignedSurgeon: s0, 
		incompatibleRooms: [],
	),
	(
		id: p09, 
		gender: A, 
		ageGroup: elderly, 
		lengthOfStay: 3, 
		workloadProduced: [0:1, 2, 1, 2, 1, 1, 3, 1, 2],
		skillLevelRequired: [0:1, 1, 0, 2, 1, 0, 0, 1, 0],
		mandatory: false, 
		earliestPossibleAdmission: 1, 
		latestPossibleAdmission: 13, 
		surgeryDuration: 180, 
		assignedSurgeon: s0, 
		incompatibleRooms: [r3, r5],
	),
	(
		id: p10, 
		gender: A, 
		ageGroup: elderly, 
		lengthOfStay: 5, 
		workloadProduced: [0:2, 3, 1, 3, 3, 1, 2, 3, 2, 3, 2, 2, 3, 2, 1],
		skillLevelRequired: [0:1, 2, 0, 0, 2, 1, 2, 1, 0, 0, 0, 0, 1, 1, 0],
		mandatory: true, 
		earliestPossibleAdmission: 1, 
		latestPossibleAdmission: 11, 
		surgeryDuration: 60, 
		assignedSurgeon: s0, 
		incompatibleRooms: [r2, r3, r4],
	),
	(
		id: p11, 
		gender: B, 
		ageGroup: elderly, 
		lengthOfStay: 3, 
		workloadProduced: [0:3, 2, 1, 2, 2, 2, 3, 2, 1],
		skillLevelRequired: [0:1, 2, 1, 0, 0, 0, 1, 1, 1],
		mandatory: false, 
		earliestPossibleAdmission: 3, 
		latestPossibleAdmission: 13, 
		surgeryDuration: 120, 
		assignedSurgeon: s0, 
		incompatibleRooms: [],
	),
	(
		id: p12, 
		gender: A, 
		ageGroup: elderly, 
		lengthOfStay: 6, 
		workloadProduced: [0:3, 2, 1, 3, 3, 2, 2, 2, 1, 2, 2, 1, 2, 1, 1, 3, 2, 2],
		skillLevelRequired: [0:0, 1, 0, 2, 1, 0, 0, 0, 1, 1, 2, 1, 0, 0, 1, 1, 0, 0],
		mandatory: false, 
		earliestPossibleAdmission: 3, 
		latestPossibleAdmission: 13, 
		surgeryDuration: 90, 
		assignedSurgeon: s0, 
		incompatibleRooms: [r5],
	),
	(
		id: p13, 
		gender: A, 
		ageGroup: elderly, 
		lengthOfStay: 6, 
		workloadProduced: [0:3, 2, 1, 2, 2, 2, 2, 2, 1, 3, 3, 1, 3, 3, 1, 1, 1, 2],
		skillLevelRequired: [0:0, 1, 0, 0, 1, 0, 0, 0, 1, 1, 0, 0, 1, 0, 0, 1, 2, 0],
		mandatory: true, 
		earliestPossibleAdmission: 1, 
		latestPossibleAdmission: 12, 
		surgeryDuration: 60, 
		assignedSurgeon: s0, 
		incompatibleRooms: [r2],
	),
	(
		id: p14, 
		gender: B, 
		ageGroup: elderly, 
		lengthOfStay: 2, 
		workloadProduced: [0:2, 2, 2, 3, 3, 1],
		skillLevelRequired: [0:1, 0, 0, 1, 2, 1],
		mandatory: true, 
		earliestPossibleAdmission: 2, 
		latestPossibleAdmission: 8, 
		surgeryDuration: 120, 
		assignedSurgeon: s1, 
		incompatibleRooms: [],
	),
	(
		id: p15, 
		gender: A, 
		ageGroup: adult, 
		lengthOfStay: 2, 
		workloadProduced: [0:2, 2, 1, 3, 2, 2],
		skillLevelRequired: [0:2, 0, 0, 1, 0, 0],
		mandatory: true, 
		earliestPossibleAdmission: 1, 
		latestPossibleAdmission: 13, 
		surgeryDuration: 60, 
		assignedSurgeon: s0, 
		incompatibleRooms: [],
	),
	(
		id: p16, 
		gender: A, 
		ageGroup: elderly, 
		lengthOfStay: 3, 
		workloadProduced: [0:2, 2, 1, 2, 3, 1, 1, 2, 1],
		skillLevelRequired: [0:1, 2, 1, 1, 1, 1, 1, 1, 1],
		mandatory: false, 
		earliestPossibleAdmission: 2, 
		latestPossibleAdmission: 13, 
		surgeryDuration: 60, 
		assignedSurgeon: s1, 
		incompatibleRooms: [],
	),
	(
		id: p17, 
		gender: B, 
		ageGroup: elderly, 
		lengthOfStay: 3, 
		workloadProduced: [0:2, 2, 2, 3, 2, 2, 1, 1, 2],
		skillLevelRequired: [0:0, 0, 0, 0, 0, 0, 1, 2, 0],
		mandatory: true, 
		earliestPossibleAdmission: 2, 
		latestPossibleAdmission: 12, 
		surgeryDuration: 180, 
		assignedSurgeon: s1, 
		incompatibleRooms: [r1],
	),
	(
		id: p18, 
		gender: B, 
		ageGroup: elderly, 
		lengthOfStay: 5, 
		workloadProduced: [0:3, 2, 2, 2, 2, 1, 2, 2, 2, 2, 3, 2, 3, 2, 1],
		skillLevelRequired: [0:2, 2, 0, 1, 2, 0, 2, 0, 1, 0, 2, 0, 1, 0, 0],
		mandatory: true, 
		earliestPossibleAdmission: 3, 
		latestPossibleAdmission: 13, 
		surgeryDuration: 60, 
		assignedSurgeon: s1, 
		incompatibleRooms: [],
	),
	(
		id: p19, 
		gender: B, 
		ageGroup: elderly, 
		lengthOfStay: 7, 
		workloadProduced: [0:3, 2, 1, 2, 2, 1, 2, 2, 2, 2, 2, 1, 2, 2, 1, 2, 2, 2, 1, 3, 2],
		skillLevelRequired: [0:2, 2, 0, 0, 1, 0, 0, 1, 0, 2, 2, 0, 1, 2, 1, 0, 1, 0, 2, 1, 1],
		mandatory: false, 
		earliestPossibleAdmission: 1, 
		latestPossibleAdmission: 13, 
		surgeryDuration: 90, 
		assignedSurgeon: s1, 
		incompatibleRooms: [],
	),
	(
		id: p20, 
		gender: B, 
		ageGroup: elderly, 
		lengthOfStay: 3, 
		workloadProduced: [0:2, 1, 1, 2, 1, 1, 2, 2, 1],
		skillLevelRequired: [0:2, 1, 0, 2, 2, 0, 0, 0, 0],
		mandatory: true, 
		earliestPossibleAdmission: 1, 
		latestPossibleAdmission: 10, 
		surgeryDuration: 60, 
		assignedSurgeon: s0, 
		incompatibleRooms: [r1, r6],
	),
	(
		id: p21, 
		gender: A, 
		ageGroup: elderly, 
		lengthOfStay: 4, 
		workloadProduced: [0:2, 2, 1, 3, 2, 1, 2, 2, 1, 3, 2, 1],
		skillLevelRequired: [0:0, 0, 0, 2, 1, 0, 1, 0, 1, 1, 2, 1],
		mandatory: true, 
		earliestPossibleAdmission: 3, 
		latestPossibleAdmission: 11, 
		surgeryDuration: 90, 
		assignedSurgeon: s0, 
		incompatibleRooms: [],
	),
	(
		id: p22, 
		gender: A, 
		ageGroup: elderly, 
		lengthOfStay: 2, 
		workloadProduced: [0:2, 2, 1, 2, 3, 1],
		skillLevelRequired: [0:2, 0, 0, 0, 1, 1],
		mandatory: false, 
		earliestPossibleAdmission: 3, 
		latestPossibleAdmission: 13, 
		surgeryDuration: 90, 
		assignedSurgeon: s0, 
		incompatibleRooms: [r0],
	),
	(
		id: p23, 
		gender: A, 
		ageGroup: elderly, 
		lengthOfStay: 2, 
		workloadProduced: [0:3, 2, 2, 2, 2, 2],
		skillLevelRequired: [0:1, 0, 0, 1, 0, 0],
		mandatory: true, 
		earliestPossibleAdmission: 10, 
		latestPossibleAdmission: 12, 
		surgeryDuration: 60, 
		assignedSurgeon: s0, 
		incompatibleRooms: [r4, r5],
	),
	(
		id: p24, 
		gender: B, 
		ageGroup: elderly, 
		lengthOfStay: 4, 
		workloadProduced: [0:3, 2, 1, 3, 2, 1, 3, 1, 2, 3, 2, 2],
		skillLevelRequired: [0:2, 2, 0, 2, 2, 1, 2, 1, 1, 1, 1, 0],
		mandatory: true, 
		earliestPossibleAdmission: 0, 
		latestPossibleAdmission: 3, 
		surgeryDuration: 90, 
		assignedSurgeon: s1, 
		incompatibleRooms: [],
	),
	(
		id: p25, 
		gender: B, 
		ageGroup: infant, 
		lengthOfStay: 8, 
		workloadProduced: [0:3, 2, 2, 2, 3, 1, 2, 3, 1, 2, 2, 2, 3, 2, 1, 2, 2, 1, 2, 3, 2, 1, 2, 2],
		skillLevelRequired: [0:2, 2, 1, 1, 0, 0, 2, 2, 0, 0, 2, 0, 1, 1, 0, 0, 1, 0, 1, 1, 0, 0, 2, 0],
		mandatory: true, 
		earliestPossibleAdmission: 1, 
		latestPossibleAdmission: 11, 
		surgeryDuration: 180, 
		assignedSurgeon: s0, 
		incompatibleRooms: [],
	),
	(
		id: p26, 
		gender: B, 
		ageGroup: elderly, 
		lengthOfStay: 6, 
		workloadProduced: [0:2, 3, 1, 2, 2, 1, 3, 3, 1, 3, 2, 2, 3, 3, 2, 2, 2, 2],
		skillLevelRequired: [0:2, 2, 0, 1, 0, 1, 0, 0, 0, 1, 1, 1, 2, 1, 0, 0, 1, 0],
		mandatory: true, 
		earliestPossibleAdmission: 1, 
		latestPossibleAdmission: 13, 
		surgeryDuration: 60, 
		assignedSurgeon: s0, 
		incompatibleRooms: [r5],
	),
	(
		id: p27, 
		gender: B, 
		ageGroup: elderly, 
		lengthOfStay: 3, 
		workloadProduced: [0:2, 2, 1, 2, 2, 2, 3, 1, 1],
		skillLevelRequired: [0:0, 2, 1, 0, 2, 1, 2, 2, 0],
		mandatory: false, 
		earliestPossibleAdmission: 2, 
		latestPossibleAdmission: 13, 
		surgeryDuration: 90, 
		assignedSurgeon: s1, 
		incompatibleRooms: [r5],
	),
	(
		id: p28, 
		gender: B, 
		ageGroup: adult, 
		lengthOfStay: 3, 
		workloadProduced: [0:3, 2, 1, 2, 2, 1, 3, 3, 1],
		skillLevelRequired: [0:1, 2, 0, 0, 2, 1, 2, 2, 0],
		mandatory: true, 
		earliestPossibleAdmission: 1, 
		latestPossibleAdmission: 11, 
		surgeryDuration: 60, 
		assignedSurgeon: s0, 
		incompatibleRooms: [],
	),
	(
		id: p29, 
		gender: B, 
		ageGroup: elderly, 
		lengthOfStay: 5, 
		workloadProduced: [0:3, 2, 2, 3, 2, 1, 2, 3, 1, 2, 2, 1, 3, 3, 1],
		skillLevelRequired: [0:0, 2, 0, 2, 1, 1, 2, 2, 1, 1, 2, 0, 1, 1, 1],
		mandatory: false, 
		earliestPossibleAdmission: 0, 
		latestPossibleAdmission: 13, 
		surgeryDuration: 90, 
		assignedSurgeon: s1, 
		incompatibleRooms: [r3],
	),
	(
		id: p30, 
		gender: B, 
		ageGroup: adult, 
		lengthOfStay: 6, 
		workloadProduced: [0:2, 3, 1, 2, 2, 1, 3, 2, 2, 3, 2, 1, 2, 2, 2, 1, 2, 2],
		skillLevelRequired: [0:1, 2, 0, 2, 2, 0, 0, 1, 1, 2, 0, 0, 0, 0, 1, 2, 1, 0],
		mandatory: true, 
		earliestPossibleAdmission: 7, 
		latestPossibleAdmission: 9, 
		surgeryDuration: 240, 
		assignedSurgeon: s1, 
		incompatibleRooms: [r3, r8],
	),
	(
		id: p31, 
		gender: B, 
		ageGroup: elderly, 
		lengthOfStay: 3, 
		workloadProduced: [0:3, 2, 2, 2, 1, 2, 2, 1, 1],
		skillLevelRequired: [0:0, 1, 0, 0, 0, 0, 2, 1, 0],
		mandatory: true, 
		earliestPossibleAdmission: 4, 
		latestPossibleAdmission: 12, 
		surgeryDuration: 90, 
		assignedSurgeon: s0, 
		incompatibleRooms: [r2],
	),
	(
		id: p32, 
		gender: B, 
		ageGroup: elderly, 
		lengthOfStay: 4, 
		workloadProduced: [0:2, 3, 2, 2, 1, 2, 2, 1, 1, 1, 3, 2],
		skillLevelRequired: [0:1, 1, 0, 0, 0, 1, 2, 2, 0, 1, 1, 0],
		mandatory: true, 
		earliestPossibleAdmission: 3, 
		latestPossibleAdmission: 13, 
		surgeryDuration: 180, 
		assignedSurgeon: s1, 
		incompatibleRooms: [],
	),
	(
		id: p33, 
		gender: A, 
		ageGroup: elderly, 
		lengthOfStay: 5, 
		workloadProduced: [0:2, 3, 2, 2, 3, 2, 3, 2, 1, 3, 2, 2, 2, 3, 1],
		skillLevelRequired: [0:2, 2, 0, 1, 0, 1, 2, 2, 0, 1, 0, 0, 1, 1, 0],
		mandatory: true, 
		earliestPossibleAdmission: 10, 
		latestPossibleAdmission: 11, 
		surgeryDuration: 90, 
		assignedSurgeon: s0, 
		incompatibleRooms: [r1],
	),
	(
		id: p34, 
		gender: B, 
		ageGroup: adult, 
		lengthOfStay: 4, 
		workloadProduced: [0:3, 2, 1, 3, 1, 1, 2, 1, 2, 1, 3, 2],
		skillLevelRequired: [0:1, 1, 1, 2, 0, 0, 2, 0, 0, 0, 1, 0],
		mandatory: true, 
		earliestPossibleAdmission: 1, 
		latestPossibleAdmission: 13, 
		surgeryDuration: 60, 
		assignedSurgeon: s0, 
		incompatibleRooms: [r1],
	),
	(
		id: p35, 
		gender: A, 
		ageGroup: elderly, 
		lengthOfStay: 5, 
		workloadProduced: [0:2, 3, 1, 3, 3, 2, 3, 2, 1, 2, 3, 1, 1, 1, 1],
		skillLevelRequired: [0:2, 0, 1, 2, 0, 0, 2, 1, 1, 2, 2, 0, 1, 1, 1],
		mandatory: true, 
		earliestPossibleAdmission: 6, 
		latestPossibleAdmission: 12, 
		surgeryDuration: 300, 
		assignedSurgeon: s1, 
		incompatibleRooms: [r5, r8],
	),
	(
		id: p36, 
		gender: A, 
		ageGroup: infant, 
		lengthOfStay: 3, 
		workloadProduced: [0:2, 2, 1, 3, 1, 2, 3, 3, 2],
		skillLevelRequired: [0:0, 0, 0, 2, 2, 0, 1, 2, 0],
		mandatory: true, 
		earliestPossibleAdmission: 2, 
		latestPossibleAdmission: 13, 
		surgeryDuration: 120, 
		assignedSurgeon: s1, 
		incompatibleRooms: [r6],
	),
	(
		id: p37, 
		gender: B, 
		ageGroup: elderly, 
		lengthOfStay: 4, 
		workloadProduced: [0:3, 2, 1, 3, 3, 1, 2, 1, 1, 2, 3, 2],
		skillLevelRequired: [0:0, 0, 0, 1, 1, 0, 0, 2, 0, 2, 1, 0],
		mandatory: false, 
		earliestPossibleAdmission: 4, 
		latestPossibleAdmission: 13, 
		surgeryDuration: 90, 
		assignedSurgeon: s0, 
		incompatibleRooms: [r6, r7],
	),
	(
		id: p38, 
		gender: A, 
		ageGroup: adult, 
		lengthOfStay: 6, 
		workloadProduced: [0:2, 3, 1, 3, 3, 2, 2, 2, 2, 2, 3, 2, 2, 1, 2, 2, 1, 1],
		skillLevelRequired: [0:2, 1, 1, 0, 1, 0, 0, 0, 1, 1, 1, 0, 0, 2, 1, 2, 1, 0],
		mandatory: false, 
		earliestPossibleAdmission: 4, 
		latestPossibleAdmission: 13, 
		surgeryDuration: 120, 
		assignedSurgeon: s0, 
		incompatibleRooms: [r3, r8],
	),
	(
		id: p39, 
		gender: A, 
		ageGroup: elderly, 
		lengthOfStay: 4, 
		workloadProduced: [0:2, 2, 2, 3, 2, 2, 3, 3, 1, 3, 3, 1],
		skillLevelRequired: [0:0, 0, 0, 1, 0, 1, 1, 1, 0, 2, 1, 0],
		mandatory: false, 
		earliestPossibleAdmission: 3, 
		latestPossibleAdmission: 13, 
		surgeryDuration: 90, 
		assignedSurgeon: s1, 
		incompatibleRooms: [],
	),
	(
		id: p40, 
		gender: A, 
		ageGroup: elderly, 
		lengthOfStay: 4, 
		workloadProduced: [0:2, 2, 1, 3, 2, 1, 3, 3, 1, 3, 1, 2],
		skillLevelRequired: [0:2, 0, 0, 0, 1, 0, 0, 2, 0, 1, 1, 0],
		mandatory: true, 
		earliestPossibleAdmission: 6, 
		latestPossibleAdmission: 13, 
		surgeryDuration: 90, 
		assignedSurgeon: s1, 
		incompatibleRooms: [r5],
	),
	(
		id: p41, 
		gender: B, 
		ageGroup: adult, 
		lengthOfStay: 3, 
		workloadProduced: [0:2, 2, 1, 3, 2, 1, 2, 1, 2],
		skillLevelRequired: [0:0, 1, 0, 1, 0, 0, 0, 0, 0],
		mandatory: true, 
		earliestPossibleAdmission: 3, 
		latestPossibleAdmission: 10, 
		surgeryDuration: 120, 
		assignedSurgeon: s0, 
		incompatibleRooms: [r0, r7],
	),
	(
		id: p42, 
		gender: B, 
		ageGroup: elderly, 
		lengthOfStay: 4, 
		workloadProduced: [0:3, 3, 1, 3, 3, 2, 2, 2, 1, 3, 3, 2],
		skillLevelRequired: [0:1, 0, 1, 0, 1, 1, 0, 0, 0, 2, 2, 1],
		mandatory: true, 
		earliestPossibleAdmission: 9, 
		latestPossibleAdmission: 13, 
		surgeryDuration: 90, 
		assignedSurgeon: s1, 
		incompatibleRooms: [r2],
	),
	(
		id: p43, 
		gender: A, 
		ageGroup: elderly, 
		lengthOfStay: 9, 
		workloadProduced: [0:2, 2, 1, 2, 2, 2, 2, 2, 2, 2, 2, 1, 3, 2, 2, 3, 3, 1, 3, 2, 2, 2, 3, 1, 1, 3, 2],
		skillLevelRequired: [0:2, 1, 1, 1, 2, 1, 1, 2, 0, 1, 1, 0, 2, 0, 0, 2, 1, 0, 2, 2, 0, 1, 0, 0, 1, 1, 0],
		mandatory: false, 
		earliestPossibleAdmission: 4, 
		latestPossibleAdmission: 13, 
		surgeryDuration: 240, 
		assignedSurgeon: s1, 
		incompatibleRooms: [],
	),
	(
		id: p44, 
		gender: B, 
		ageGroup: adult, 
		lengthOfStay: 8, 
		workloadProduced: [0:2, 3, 2, 2, 2, 2, 2, 2, 2, 3, 3, 1, 2, 2, 1, 2, 2, 2, 2, 1, 1, 1, 2, 2],
		skillLevelRequired: [0:2, 2, 0, 1, 2, 1, 0, 0, 0, 0, 2, 0, 1, 0, 0, 1, 2, 0, 2, 2, 0, 0, 2, 0],
		mandatory: false, 
		earliestPossibleAdmission: 3, 
		latestPossibleAdmission: 13, 
		surgeryDuration: 180, 
		assignedSurgeon: s0, 
		incompatibleRooms: [],
	),
	(
		id: p45, 
		gender: A, 
		ageGroup: elderly, 
		lengthOfStay: 6, 
		workloadProduced: [0:1, 1, 1, 1, 2, 2, 1, 1, 1, 3, 1, 1, 1, 2, 1, 1, 1, 1],
		skillLevelRequired: [0:1, 0, 0, 2, 2, 0, 0, 2, 0, 2, 0, 1, 1, 1, 0, 1, 2, 0],
		mandatory: true, 
		earliestPossibleAdmission: 1, 
		latestPossibleAdmission: 12, 
		surgeryDuration: 120, 
		assignedSurgeon: s1, 
		incompatibleRooms: [r0],
	),
	(
		id: p46, 
		gender: A, 
		ageGroup: elderly, 
		lengthOfStay: 2, 
		workloadProduced: [0:2, 2, 1, 3, 1, 1],
		skillLevelRequired: [0:0, 0, 1, 0, 1, 0],
		mandatory: false, 
		earliestPossibleAdmission: 11, 
		latestPossibleAdmission: 13, 
		surgeryDuration: 120, 
		assignedSurgeon: s1, 
		incompatibleRooms: [r0, r1, r5],
	),
	(
		id: p47, 
		gender: B, 
		ageGroup: adult, 
		lengthOfStay: 4, 
		workloadProduced: [0:3, 2, 1, 2, 2, 2, 2, 2, 1, 3, 1, 1],
		skillLevelRequired: [0:2, 1, 1, 0, 2, 1, 1, 1, 0, 0, 2, 0],
		mandatory: true, 
		earliestPossibleAdmission: 12, 
		latestPossibleAdmission: 13, 
		surgeryDuration: 180, 
		assignedSurgeon: s0, 
		incompatibleRooms: [],
	),
	(
		id: p48, 
		gender: B, 
		ageGroup: infant, 
		lengthOfStay: 6, 
		workloadProduced: [0:3, 2, 2, 2, 2, 1, 3, 2, 2, 2, 2, 2, 2, 3, 1, 3, 2, 1],
		skillLevelRequired: [0:2, 1, 0, 0, 1, 0, 0, 1, 0, 0, 2, 1, 1, 1, 0, 2, 1, 1],
		mandatory: true, 
		earliestPossibleAdmission: 8, 
		latestPossibleAdmission: 9, 
		surgeryDuration: 120, 
		assignedSurgeon: s1, 
		incompatibleRooms: [r5],
	),
	(
		id: p49, 
		gender: B, 
		ageGroup: adult, 
		lengthOfStay: 2, 
		workloadProduced: [0:2, 2, 2, 2, 2, 2],
		skillLevelRequired: [0:1, 2, 1, 2, 2, 1],
		mandatory: true, 
		earliestPossibleAdmission: 3, 
		latestPossibleAdmission: 13, 
		surgeryDuration: 120, 
		assignedSurgeon: s0, 
		incompatibleRooms: [r2],
	),
	(
		id: p50, 
		gender: B, 
		ageGroup: elderly, 
		lengthOfStay: 4, 
		workloadProduced: [0:2, 2, 1, 2, 2, 1, 3, 2, 1, 2, 3, 2],
		skillLevelRequired: [0:1, 1, 1, 0, 1, 0, 2, 0, 0, 1, 2, 0],
		mandatory: true, 
		earliestPossibleAdmission: 4, 
		latestPossibleAdmission: 13, 
		surgeryDuration: 240, 
		assignedSurgeon: s1, 
		incompatibleRooms: [r4, r6],
	),
	(
		id: p51, 
		gender: A, 
		ageGroup: infant, 
		lengthOfStay: 6, 
		workloadProduced: [0:3, 3, 1, 3, 2, 1, 2, 3, 2, 2, 2, 1, 3, 2, 2, 2, 3, 2],
		skillLevelRequired: [0:2, 2, 0, 0, 2, 0, 2, 1, 0, 0, 2, 0, 0, 2, 0, 2, 0, 0],
		mandatory: false, 
		earliestPossibleAdmission: 3, 
		latestPossibleAdmission: 13, 
		surgeryDuration: 90, 
		assignedSurgeon: s0, 
		incompatibleRooms: [],
	),
	(
		id: p52, 
		gender: A, 
		ageGroup: elderly, 
		lengthOfStay: 5, 
		workloadProduced: [0:2, 2, 2, 2, 2, 2, 2, 3, 2, 2, 2, 2, 1, 1, 1],
		skillLevelRequired: [0:1, 1, 1, 2, 1, 0, 0, 0, 1, 2, 0, 0, 1, 0, 1],
		mandatory: true, 
		earliestPossibleAdmission: 3, 
		latestPossibleAdmission: 13, 
		surgeryDuration: 90, 
		assignedSurgeon: s0, 
		incompatibleRooms: [r3],
	),
	(
		id: p53, 
		gender: B, 
		ageGroup: elderly, 
		lengthOfStay: 4, 
		workloadProduced: [0:2, 3, 1, 2, 2, 1, 2, 1, 2, 3, 3, 2],
		skillLevelRequired: [0:0, 1, 0, 0, 0, 0, 2, 2, 1, 1, 1, 0],
		mandatory: true, 
		earliestPossibleAdmission: 9, 
		latestPossibleAdmission: 13, 
		surgeryDuration: 120, 
		assignedSurgeon: s1, 
		incompatibleRooms: [],
	)
];

occupantData = [
	(
		id: a0, 
		gender: B, 
		ageGroup: elderly, 
		lengthOfStay: 1, 
		workloadProduced: [0:1, 3, 1],
		skillLevelRequired: [0:0, 1, 0],
		assignedRoom: r4, 
	),
	(
		id: a1, 
		gender: A, 
		ageGroup: elderly, 
		lengthOfStay: 4, 
		workloadProduced: [0:1, 2, 1, 1, 1, 1, 2, 3, 1, 3, 3, 1],
		skillLevelRequired: [0:0, 0, 0, 2, 2, 0, 0, 2, 0, 0, 2, 1],
		assignedRoom: r1, 
	),
	(
		id: a2, 
		gender: A, 
		ageGroup: elderly, 
		lengthOfStay: 1, 
		workloadProduced: [0:3, 2, 1],
		skillLevelRequired: [0:2, 0, 0],
		assignedRoom: r0, 
	),
	(
		id: a3, 
		gender: A, 
		ageGroup: elderly, 
		lengthOfStay: 10, 
		workloadProduced: [0:2, 1, 1, 2, 3, 1, 3, 2, 1, 3, 3, 1, 3, 1, 1, 3, 2, 1, 2, 3, 1, 1, 1, 1, 2, 3, 1, 3, 3, 1],
		skillLevelRequired: [0:2, 2, 0, 0, 2, 0, 0, 1, 0, 0, 2, 1, 1, 1, 0, 2, 1, 1, 2, 2, 1, 2, 2, 0, 0, 0, 0, 2, 2, 1],
		assignedRoom: r1, 
	),
	(
		id: a4, 
		gender: B, 
		ageGroup: adult, 
		lengthOfStay: 4, 
		workloadProduced: [0:3, 2, 1, 1, 2, 1, 3, 2, 1, 3, 3, 1],
		skillLevelRequired: [0:2, 0, 0, 0, 0, 0, 0, 2, 0, 0, 2, 0],
		assignedRoom: r2, 
	),
	(
		id: a5, 
		gender: A, 
		ageGroup: elderly, 
		lengthOfStay: 2, 
		workloadProduced: [0:2, 2, 1, 3, 1, 1],
		skillLevelRequired: [0:1, 0, 1, 0, 0, 1],
		assignedRoom: r3, 
	),
	(
		id: a6, 
		gender: B, 
		ageGroup: infant, 
		lengthOfStay: 7, 
		workloadProduced: [0:3, 2, 1, 3, 1, 1, 2, 2, 1, 2, 2, 1, 2, 3, 1, 1, 1, 1, 3, 2, 1],
		skillLevelRequired: [0:2, 0, 0, 0, 2, 1, 0, 0, 0, 1, 2, 1, 0, 1, 0, 1, 2, 1, 0, 1, 1],
		assignedRoom: r8, 
	),
	(
		id: a7, 
		gender: A, 
		ageGroup: adult, 
		lengthOfStay: 8, 
		workloadProduced: [0:3, 2, 1, 3, 2, 1, 2, 1, 1, 3, 3, 1, 2, 3, 1, 2, 3, 1, 3, 1, 1, 2, 2, 1],
		skillLevelRequired: [0:0, 1, 0, 0, 1, 1, 1, 0, 0, 1, 2, 0, 2, 1, 0, 1, 2, 1, 0, 0, 0, 0, 0, 1],
		assignedRoom: r6, 
	),
	(
		id: a8, 
		gender: B, 
		ageGroup: elderly, 
		lengthOfStay: 7, 
		workloadProduced: [0:3, 2, 1, 1, 2, 1, 2, 3, 1, 3, 3, 1, 1, 3, 1, 1, 2, 1, 2, 3, 1],
		skillLevelRequired: [0:1, 0, 0, 1, 2, 0, 1, 0, 0, 0, 1, 0, 1, 0, 0, 1, 0, 0, 2, 1, 0],
		assignedRoom: r2, 
	)
];

operatingTheaterData = [
	(
		id: t0, 
		availability: [0:720, 600, 720, 720, 720, 480, 600, 600, 600, 720, 0, 0, 480, 720],
	),
	(
		id: t1, 
		availability: [0:600, 600, 600, 720, 720, 0, 720, 720, 600, 600, 600, 720, 480, 720],
	)
];

roomData = [
	(id: r0, capacity: 4, ),
	(id: r1, capacity: 4, ),
	(id: r2, capacity: 2, ),
	(id: r3, capacity: 4, ),
	(id: r4, capacity: 4, ),
	(id: r5, capacity: 2, ),
	(id: r6, capacity: 2, ),
	(id: r7, capacity: 4, ),
	(id: r8, capacity: 3, )
];

